units metal
dimension 3
boundary p p m
atom_style atomic
atom_modify map yes