units metal
dimension 3
boundary p p m
atom_style atomic
atom_modify map yes

read_data ${input_file}

write_dump all custom ${dump_path} ${dump_str}